local_stuff/sygus_stuff/sygus_inv_oai/repo/z3/51.out
STDOUT:
unknown
(error "line 18 column 10: model is not available")


STDERR:
